RT is False
Default write of storage_offers_DA.csv just to have a file (but constraint should be inactive)
Reading model...
...model read.
creating competitive generators file...
...competitive generators recorded.
Loading data...
.. day-ahead data with real-time VRE data read.
Compiling instance...
...instance created.
Creating Offer Mitigation (model will solve as dispatch if TRUE)...
NOTE: storage offers will not be mitigated
...storage offer mitigation file created
Converting model to MPEC...
...converted
NOTE: initial MIP solve with only storage competitive to get feasible solution
Solving...

Welcome to IBM(R) ILOG(R) CPLEX(R) Interactive Optimizer 12.8.0.0
  with Simplex, Mixed Integer & Barrier Optimizers
5725-A06 5725-A29 5724-Y48 5724-Y49 5724-Y54 5724-Y55 5655-Y21
Copyright IBM Corp. 1988, 2017.  All Rights Reserved.

Type 'help' for a list of available commands.
Type 'help' followed by a command name for more
information on commands.

CPLEX> Logfile 'cplex.log' closed.
Logfile 'C:\Users\llavi\Desktop\test919\logs\tmpf1nff2ss.cplex.log' open.
CPLEX> New value for parallel optimization mode: -1
CPLEX> New value for mixed integer optimality gap tolerance: 0.01
CPLEX> New value for integrality tolerance: 1e-09
CPLEX> New value for feasibility tolerance: 0.01
CPLEX> New value for deterministic time limit in ticks: 75000
CPLEX> Problem 'C:\Users\llavi\Desktop\test919\logs\tmpgzoz62su.pyomo.lp' read.
Read time = 0.23 sec. (13.50 ticks)
CPLEX> Problem name         : C:\Users\llavi\Desktop\test919\logs\tmpgzoz62su.pyomo.lp
Objective sense      : Maximize
Variables            :   54021  [Nneg: 1,  Box: 22008,  Free: 4464,
                                 Binary: 27548]
Objective nonzeros   :    8991
Linear constraints   :  123829  [Less: 41554,  Greater: 59512,  Equal: 22763]
  Nonzeros           :  300604
  RHS nonzeros       :   67912

Variables            : Min LB: -5000.000        Max UB: 1000000.       
Objective nonzeros   : Min   : 0.008333333      Max   : 832.7500       
Linear constraints   :
  Nonzeros           : Min   : 0.001000000      Max   : 1000000.       
  RHS nonzeros       : Min   : 0.008333333      Max   : 1000000.       
CPLEX> CPXPARAM_Simplex_Tolerances_Feasibility          0.01
CPXPARAM_Parallel                                -1
CPXPARAM_DetTimeLimit                            75000
CPXPARAM_MIP_Tolerances_MIPGap                   0.01
CPXPARAM_MIP_Tolerances_Integrality              1.0000000000000001e-09
Tried aggregator 3 times.
MIP Presolve eliminated 89171 rows and 19071 columns.
MIP Presolve added 3414 rows and 0 columns.
MIP Presolve modified 23939 coefficients.
Aggregator did 13070 substitutions.
Reduced MIP has 25002 rows, 21332 columns, and 71340 nonzeros.
Reduced MIP has 8446 binaries, 0 generals, 0 SOSs, and 0 indicators.
Presolve time = 0.28 sec. (167.19 ticks)
Probing fixed 400 vars, tightened 2850 bounds.
Probing time = 3.25 sec. (883.97 ticks)
Tried aggregator 2 times.
MIP Presolve eliminated 903 rows and 800 columns.
MIP Presolve modified 2201 coefficients.
Aggregator did 39 substitutions.
Reduced MIP has 24060 rows, 20493 columns, and 68617 nonzeros.
Reduced MIP has 8046 binaries, 0 generals, 0 SOSs, and 0 indicators.
Presolve time = 0.14 sec. (54.25 ticks)
Probing time = 0.06 sec. (15.22 ticks)
Clique table members: 6488.
MIP emphasis: balance optimality and feasibility.
MIP search method: dynamic search.
Parallel mode: opportunistic, using up to 4 threads.
Root relaxation solution time = 0.55 sec. (466.55 ticks)

        Nodes                                         Cuts/
   Node  Left     Objective  IInf  Best Integer    Best Bound    ItCnt     Gap

      0     0     6077.2758   708                   6077.2758     3473         
      0     0     6077.2758     4                     Cuts: 5     3476         
      0     0     6077.2758     4                 Flowcuts: 3     3478         
      0     2     6077.2758     4                   6077.2758     3478         
Elapsed time = 13.94 sec. (4713.58 ticks, tree = 0.03 MB, solutions = 0)
*    17     6      integral     0     5918.1511     5918.1511     3615    0.00%

Clique cuts applied:  1
Implied bound cuts applied:  2
Flow cuts applied:  4
Gomory fractional cuts applied:  2

Root node processing (before b&c):
  Real time             =   13.66 sec. (4674.64 ticks)
Parallel b&c, 4 threads:
  Real time             =    0.55 sec. (228.86 ticks)
  Sync time (average)   =    0.07 sec.
  Wait time (average)   =    0.01 sec.
                          ------------
Total (root+branch&cut) =   14.20 sec. (4903.50 ticks)

Solution pool: 1 solution saved.

MIP - Integer optimal solution:  Objective =  5.9181511412e+03
Solution time =   14.20 sec.  Iterations = 4313  Nodes = 47
Deterministic time = 4903.65 ticks  (345.25 ticks/sec)

CPLEX> Incumbent solution written to file 'C:\Users\llavi\Desktop\test919\logs\tmpxy_nrjtj.cplex.sol'.
CPLEX> NOTE: no warmstart specified for MIP iteration, default behavior is true
NOTE: resolving with all competitive generators using storage-only solution to warmstart
Solving...

Welcome to IBM(R) ILOG(R) CPLEX(R) Interactive Optimizer 12.8.0.0
  with Simplex, Mixed Integer & Barrier Optimizers
5725-A06 5725-A29 5724-Y48 5724-Y49 5724-Y54 5724-Y55 5655-Y21
Copyright IBM Corp. 1988, 2017.  All Rights Reserved.

Type 'help' for a list of available commands.
Type 'help' followed by a command name for more
information on commands.

CPLEX> Logfile 'cplex.log' closed.
Logfile 'C:\Users\llavi\Desktop\test919\logs\tmpqibb_abd.cplex.log' open.
CPLEX> New value for parallel optimization mode: -1
CPLEX> New value for mixed integer optimality gap tolerance: 0.01
CPLEX> New value for integrality tolerance: 1e-09
CPLEX> New value for feasibility tolerance: 0.01
CPLEX> New value for deterministic time limit in ticks: 75000
CPLEX> Problem 'C:\Users\llavi\Desktop\test919\logs\tmpw24eruyo.pyomo.lp' read.
Read time = 0.30 sec. (13.52 ticks)
CPLEX> MIP start file 'C:\Users\llavi\Desktop\test919\logs\tmpxe_fcetf.cplex.mst' read.
CPLEX> Problem name         : C:\Users\llavi\Desktop\test919\logs\tmpw24eruyo.pyomo.lp
Objective sense      : Maximize
Variables            :   54741  [Nneg: 1,  Box: 22728,  Free: 4464,
                                 Binary: 27548]
Objective nonzeros   :    9711
Linear constraints   :  123829  [Less: 41554,  Greater: 59512,  Equal: 22763]
  Nonzeros           :  300604
  RHS nonzeros       :   67912

Variables            : Min LB: -5000.000        Max UB: 1000000.       
Objective nonzeros   : Min   : 0.008333333      Max   : 832.7500       
Linear constraints   :
  Nonzeros           : Min   : 0.001000000      Max   : 1000000.       
  RHS nonzeros       : Min   : 0.008333333      Max   : 1000000.       
CPLEX> CPXPARAM_Simplex_Tolerances_Feasibility          0.01
CPXPARAM_Parallel                                -1
CPXPARAM_DetTimeLimit                            75000
CPXPARAM_MIP_Tolerances_MIPGap                   0.01
CPXPARAM_MIP_Tolerances_Integrality              1.0000000000000001e-09
Warning:  No solution found from 1 MIP starts.
Retaining values of one MIP start for possible repair.
Tried aggregator 3 times.
MIP Presolve eliminated 89171 rows and 19791 columns.
MIP Presolve added 3414 rows and 0 columns.
MIP Presolve modified 23939 coefficients.
Aggregator did 13070 substitutions.
Reduced MIP has 25002 rows, 21332 columns, and 71340 nonzeros.
Reduced MIP has 8446 binaries, 0 generals, 0 SOSs, and 0 indicators.
Presolve time = 0.31 sec. (167.55 ticks)
Probing fixed 400 vars, tightened 2850 bounds.
Probing time = 3.11 sec. (883.97 ticks)
Tried aggregator 2 times.
MIP Presolve eliminated 903 rows and 800 columns.
MIP Presolve modified 2201 coefficients.
Aggregator did 39 substitutions.
Reduced MIP has 24060 rows, 20493 columns, and 68617 nonzeros.
Reduced MIP has 8046 binaries, 0 generals, 0 SOSs, and 0 indicators.
Presolve time = 0.11 sec. (54.24 ticks)
Probing time = 0.05 sec. (15.22 ticks)
Clique table members: 6488.
MIP emphasis: balance optimality and feasibility.
MIP search method: dynamic search.
Parallel mode: opportunistic, using up to 4 threads.
Root relaxation solution time = 0.50 sec. (461.42 ticks)

        Nodes                                         Cuts/
   Node  Left     Objective  IInf  Best Integer    Best Bound    ItCnt     Gap

      0     0     6077.2758   694                   6077.2758     3426         
      0     0     6077.2758     6                    Cuts: 19     3433         
      0     0     6077.2758     6                     Cuts: 4     3435         
      0     0     6077.2758     6                 Impl Bds: 1     3435         
Repair heuristic found nothing.
      0     3    infeasible                         6057.9049     3619         
Elapsed time = 20.89 sec. (7391.21 ticks, tree = 0.02 MB, solutions = 0)
*    23     9      integral     0     5918.1511     5918.1511     3799    0.00%

Clique cuts applied:  1
Implied bound cuts applied:  3
Flow cuts applied:  5
Mixed integer rounding cuts applied:  2
Gomory fractional cuts applied:  5

Root node processing (before b&c):
  Real time             =   20.73 sec. (7371.23 ticks)
Parallel b&c, 4 threads:
  Real time             =    0.41 sec. (193.62 ticks)
  Sync time (average)   =    0.06 sec.
  Wait time (average)   =    0.01 sec.
                          ------------
Total (root+branch&cut) =   21.14 sec. (7564.85 ticks)

Solution pool: 1 solution saved.

MIP - Integer optimal solution:  Objective =  5.9181511412e+03
Solution time =   21.14 sec.  Iterations = 4105  Nodes = 34
Deterministic time = 7565.01 ticks  (357.85 ticks/sec)

CPLEX> Incumbent solution written to file 'C:\Users\llavi\Desktop\test919\logs\tmpakfbm0nf.cplex.sol'.
CPLEX> Exporting results... 
